;; Mutation-Based Equivalence Benchmark
;; Source:     AutomatArk / instance06093.smt2
;; Mutations:  intersect_max_len_10, literal_char_inc
;; Status:     sat
;;
;; Original regex vs mutated regex
;; Equivalence check: unsat ⟺ L(R1) = L(R2)

(set-info :smt-lib-version 2.6)
(set-info :category "mutation")
(set-info :status sat)
(set-logic QF_S)

(declare-const x String)

;; R1: original
;; R2: mutated (intersect_max_len_10, literal_char_inc)
(assert
  (str.in_re x
    (re.union (re.inter (re.++ (re.* (re.range "0" "9")) (re.union (re.range "a" "z") (re.range "A" "Z")) (re.* (re.++ (re.* (re.union (str.to_re "-") (str.to_re ".") (re.range "0" "9") (re.range "A" "Z") (re.range "a" "z") (str.to_re "_"))) (re.union (re.range "0" "9") (re.range "a" "z") (re.range "A" "Z")))) (str.to_re "@") (re.+ (re.++ (re.union (re.range "a" "z") (re.range "A" "Z")) (re.* (re.union (str.to_re "-") (str.to_re ".") (re.range "0" "9") (re.range "A" "Z") (re.range "a" "z") (str.to_re "_"))) (re.union (re.range "0" "9") (re.range "a" "z") (re.range "A" "Z")) (str.to_re "."))) ((_ re.loop 2 9) (re.union (re.range "a" "z") (re.range "A" "Z"))) (str.to_re "\u{a}")) (re.comp (re.++ (re.* (re.range "0" "9")) (re.union (re.range "a" "z") (re.range "A" "Z")) (re.* (re.++ (re.* (re.union (str.to_re ".") (str.to_re ".") (re.range "0" "9") (re.range "A" "Z") (re.range "a" "z") (str.to_re "_"))) (re.inter (re.union (re.range "0" "9") (re.range "a" "z") (re.range "A" "Z")) ((_ re.loop 0 10) re.allchar)))) (str.to_re "@") (re.+ (re.++ (re.union (re.range "a" "z") (re.range "A" "Z")) (re.* (re.union (str.to_re "-") (str.to_re ".") (re.range "0" "9") (re.range "A" "Z") (re.range "a" "z") (str.to_re "_"))) (re.union (re.range "0" "9") (re.range "a" "z") (re.range "A" "Z")) (str.to_re "."))) ((_ re.loop 2 9) (re.union (re.range "a" "z") (re.range "A" "Z"))) (str.to_re "\u{a}")))) (re.inter (re.comp (re.++ (re.* (re.range "0" "9")) (re.union (re.range "a" "z") (re.range "A" "Z")) (re.* (re.++ (re.* (re.union (str.to_re "-") (str.to_re ".") (re.range "0" "9") (re.range "A" "Z") (re.range "a" "z") (str.to_re "_"))) (re.union (re.range "0" "9") (re.range "a" "z") (re.range "A" "Z")))) (str.to_re "@") (re.+ (re.++ (re.union (re.range "a" "z") (re.range "A" "Z")) (re.* (re.union (str.to_re "-") (str.to_re ".") (re.range "0" "9") (re.range "A" "Z") (re.range "a" "z") (str.to_re "_"))) (re.union (re.range "0" "9") (re.range "a" "z") (re.range "A" "Z")) (str.to_re "."))) ((_ re.loop 2 9) (re.union (re.range "a" "z") (re.range "A" "Z"))) (str.to_re "\u{a}"))) (re.++ (re.* (re.range "0" "9")) (re.union (re.range "a" "z") (re.range "A" "Z")) (re.* (re.++ (re.* (re.union (str.to_re ".") (str.to_re ".") (re.range "0" "9") (re.range "A" "Z") (re.range "a" "z") (str.to_re "_"))) (re.inter (re.union (re.range "0" "9") (re.range "a" "z") (re.range "A" "Z")) ((_ re.loop 0 10) re.allchar)))) (str.to_re "@") (re.+ (re.++ (re.union (re.range "a" "z") (re.range "A" "Z")) (re.* (re.union (str.to_re "-") (str.to_re ".") (re.range "0" "9") (re.range "A" "Z") (re.range "a" "z") (str.to_re "_"))) (re.union (re.range "0" "9") (re.range "a" "z") (re.range "A" "Z")) (str.to_re "."))) ((_ re.loop 2 9) (re.union (re.range "a" "z") (re.range "A" "Z"))) (str.to_re "\u{a}"))))))

(check-sat)
(exit)
